
Gurobi 6.5.2 (win64) logging started 07/23/16 03:14:44


Gurobi 6.5.2 (win64) logging started 07/23/16 03:14:44

Optimize a model with 20466 rows, 1358 columns and 44721 nonzeros
Coefficient statistics:
  Matrix range    [4e-06, 1e+02]
  Objective range [1e+00, 1e+00]
  Bounds range    [1e+00, 1e+00]
  RHS range       [1e+00, 8e+02]
Presolve removed 19604 rows and 148 columns
Presolve time: 0.04s
Presolved: 862 rows, 1210 columns, 5636 nonzeros
Variable types: 241 continuous, 969 integer (969 binary)

Root relaxation: objective 1.800771e+02, 2831 iterations, 0.10 seconds

    Nodes    |    Current Node    |     Objective Bounds      |     Work
 Expl Unexpl |  Obj  Depth IntInf | Incumbent    BestBd   Gap | It/Node Time

     0     0  180.07710    0  177          -  180.07710      -     -    0s
H    0     0                    1081.1277635  180.07710  83.3%     -    0s
     0     0  191.64704    0  148 1081.12776  191.64704  82.3%     -    0s
H    0     0                     196.9787387  191.64704  2.71%     -    0s
H    0     0                     196.6768524  191.64704  2.56%     -    0s
H    0     0                     196.6716696  191.64704  2.55%     -    0s
H    0     0                     196.5234944  191.64704  2.48%     -    0s
H    0     0                     196.4325576  191.64704  2.44%     -    0s
H    0     0                     196.4273749  191.64704  2.43%     -    0s
     0     0  193.48283    0  137  196.42737  193.48283  1.50%     -    0s
     0     0  193.64853    0  144  196.42737  193.64853  1.41%     -    0s
     0     0  193.80686    0  146  196.42737  193.80686  1.33%     -    0s
H    0     0                     195.9791039  193.80686  1.11%     -    0s
     0     0  194.12214    0  149  195.97910  194.12214  0.95%     -    0s
H    0     0                     195.8701082  194.12214  0.89%     -    0s
     0     0  194.12214    0  151  195.87011  194.12214  0.89%     -    0s
     0     0  194.12214    0  126  195.87011  194.12214  0.89%     -    0s
H    0     0                     195.6951851  194.12214  0.80%     -    0s
H    0     0                     195.6833844  194.12214  0.80%     -    0s
     0     0  194.12214    0   84  195.68338  194.12214  0.80%     -    0s
     0     0  194.12214    0  102  195.68338  194.12214  0.80%     -    0s
     0     0  194.53290    0   98  195.68338  194.53290  0.59%     -    0s
     0     0  194.55310    0  103  195.68338  194.55310  0.58%     -    0s
     0     0  194.55310    0  103  195.68338  194.55310  0.58%     -    0s
     0     0  194.55310    0   63  195.68338  194.55310  0.58%     -    0s
     0     2  194.55310    0   63  195.68338  194.55310  0.58%     -    0s
H  129   124                     195.6636982  194.98375  0.35%  21.4    0s
H  291   193                     195.5433980  194.99781  0.28%  18.2    0s
H  318   198                     195.5418031  194.99781  0.28%  17.6    1s
H  496   327                     195.5377655  195.01594  0.27%  15.5    1s
H 1169   683                     195.5166706  195.10926  0.21%  17.8    2s
H 1265   678                     195.5147513  195.10926  0.21%  17.9    2s
H 1376   662                     195.4978436  195.10926  0.20%  17.2    2s
  4926  1204  195.44426   30   33  195.49784  195.35965  0.07%  13.2    5s

Cutting planes:
  Gomory: 23
  MIR: 29
  Flow cover: 1

Explored 11620 nodes (126114 simplex iterations) in 8.60 seconds
Thread count was 8 (of 8 available processors)

Optimal solution found (tolerance 1.00e-04)
Best objective 1.954978436022e+02, best bound 1.954838950393e+02, gap 0.0071%

Wrote requested result file 'H2\instance22\\Results22E_Sol6.lp'

